words_hard_train/2842.qaiger
aag 158 24 0 1 134
2
4
12
14
18
20
32
34
46
48
60
62
74
76
88
90
108
110
114
120
144
158
174
190
316
6 2 5
8 3 4
10 7 9
16 12 14
22 19 21
24 18 20
26 23 25
28 16 26
30 29 25
36 33 35
38 32 34
40 37 39
42 31 40
44 43 39
50 47 49
52 46 48
54 51 53
56 45 54
58 57 53
64 61 63
66 60 62
68 65 67
70 59 68
72 71 67
78 75 77
80 74 76
82 79 81
84 73 82
86 85 81
92 89 91
94 88 90
96 93 95
98 87 96
100 99 95
102 11 101
104 10 100
106 103 105
112 108 110
116 113 115
118 117 110
122 118 120
124 123 34
126 119 121
128 124 127
130 14 108
132 112 114
134 133 20
136 134 117
138 131 137
140 129 138
142 127 110
146 142 144
148 147 48
150 143 145
152 148 151
154 140 153
156 151 110
160 157 159
162 161 62
164 156 158
166 162 165
168 154 167
170 150 159
172 171 110
176 173 175
178 177 76
180 172 174
182 178 181
184 168 183
186 170 175
188 187 110
192 189 191
194 193 90
196 188 190
198 194 197
200 184 199
202 107 200
204 58 69
206 205 71
208 155 166
210 209 169
212 206 210
214 72 83
216 215 85
218 169 182
220 219 185
222 216 220
224 213 223
226 44 55
228 227 57
230 229 152
232 30 41
234 233 43
236 234 129
238 237 139
240 17 27
242 130 136
244 241 243
246 130 137
248 247 27
250 249 13
252 245 251
254 253 29
256 238 255
258 235 128
260 257 259
262 231 260
264 228 153
266 263 265
268 207 211
270 267 269
272 270 155
274 224 273
276 217 221
278 275 277
280 86 97
282 281 99
284 185 198
286 285 201
288 282 286
290 279 289
292 283 287
294 291 293
296 191 110
298 296 4
300 298 186
302 294 300
304 202 302
306 203 303
308 106 201
310 295 301
312 309 311
314 306 313
316 305 315
i0 1 x2[7]
i1 1 x1[7]
i2 1 x2[0]
i3 1 x1[0]
i4 1 x2[1]
i5 1 x1[1]
i6 1 x2[2]
i7 1 x1[2]
i8 1 x2[3]
i9 1 x1[3]
i10 1 x2[4]
i11 1 x1[4]
i12 1 x2[5]
i13 1 x1[5]
i14 1 x2[6]
i15 1 x1[6]
i16 2 y1[0]
i17 2 y1[7]
i18 2 y1[1]
i19 2 y1[2]
i20 2 y1[3]
i21 2 y1[4]
i22 2 y1[5]
i23 2 y1[6]
o0 bv[0]
c
simplified
  >=
    add
      1 x1
      1 x2
    and
      abs
        2 y1
      1 x1
