words_hard_train/2842.qaiger.qdimacs
p cnf 158 403
a 1 2 37 6 7 38 9 10 44 45 16 17 23 24 30 31 0
e 3 4 5 8 11 12 13 14 15 18 19 20 21 22 25 26 27 28 29 32 33 34 35 36 39 40 41 42 43 46 47 48 49 50 51 52 53 54 55 56 57 58 59 60 61 62 63 64 65 66 67 68 69 70 71 72 73 74 75 76 77 78 79 80 81 82 83 84 85 86 87 88 89 90 91 92 93 94 95 96 97 98 99 100 101 102 103 104 105 106 107 108 109 110 111 112 113 114 115 116 117 118 119 120 121 122 123 124 125 126 127 128 129 130 131 132 133 134 135 136 137 138 139 140 141 142 143 144 145 146 147 148 149 150 151 152 153 154 155 156 157 158 0
-1 2 3 0
1 -3 0
-2 -3 0
1 -2 4 0
-1 -4 0
2 -4 0
3 4 5 0
-3 -5 0
-4 -5 0
-6 -7 8 0
6 -8 0
7 -8 0
9 10 11 0
-9 -11 0
-10 -11 0
-9 -10 12 0
9 -12 0
10 -12 0
11 12 13 0
-11 -13 0
-12 -13 0
-8 -13 14 0
8 -14 0
13 -14 0
14 12 15 0
-14 -15 0
-12 -15 0
16 17 18 0
-16 -18 0
-17 -18 0
-16 -17 19 0
16 -19 0
17 -19 0
18 19 20 0
-18 -20 0
-19 -20 0
15 -20 21 0
-15 -21 0
20 -21 0
21 19 22 0
-21 -22 0
-19 -22 0
23 24 25 0
-23 -25 0
-24 -25 0
-23 -24 26 0
23 -26 0
24 -26 0
25 26 27 0
-25 -27 0
-26 -27 0
22 -27 28 0
-22 -28 0
27 -28 0
28 26 29 0
-28 -29 0
-26 -29 0
30 31 32 0
-30 -32 0
-31 -32 0
-30 -31 33 0
30 -33 0
31 -33 0
32 33 34 0
-32 -34 0
-33 -34 0
29 -34 35 0
-29 -35 0
34 -35 0
35 33 36 0
-35 -36 0
-33 -36 0
37 38 39 0
-37 -39 0
-38 -39 0
-37 -38 40 0
37 -40 0
38 -40 0
39 40 41 0
-39 -41 0
-40 -41 0
36 -41 42 0
-36 -42 0
41 -42 0
42 40 43 0
-42 -43 0
-40 -43 0
44 45 46 0
-44 -46 0
-45 -46 0
-44 -45 47 0
44 -47 0
45 -47 0
46 47 48 0
-46 -48 0
-47 -48 0
43 -48 49 0
-43 -49 0
48 -49 0
49 47 50 0
-49 -50 0
-47 -50 0
5 50 51 0
-5 -51 0
-50 -51 0
-5 -50 52 0
5 -52 0
50 -52 0
51 52 53 0
-51 -53 0
-52 -53 0
-54 -55 56 0
54 -56 0
55 -56 0
56 57 58 0
-56 -58 0
-57 -58 0
58 -55 59 0
-58 -59 0
55 -59 0
-59 -60 61 0
59 -61 0
60 -61 0
61 -17 62 0
-61 -62 0
17 -62 0
59 60 63 0
-59 -63 0
-60 -63 0
-62 63 64 0
62 -64 0
-63 -64 0
-7 -54 65 0
7 -65 0
54 -65 0
-56 -57 66 0
56 -66 0
57 -66 0
66 -10 67 0
-66 -67 0
10 -67 0
-67 58 68 0
67 -68 0
-58 -68 0
65 68 69 0
-65 -69 0
-68 -69 0
64 -69 70 0
-64 -70 0
69 -70 0
63 -55 71 0
-63 -71 0
55 -71 0
-71 -72 73 0
71 -73 0
72 -73 0
73 -24 74 0
-73 -74 0
24 -74 0
71 72 75 0
-71 -75 0
-72 -75 0
-74 75 76 0
74 -76 0
-75 -76 0
-70 76 77 0
70 -77 0
-76 -77 0
75 -55 78 0
-75 -78 0
55 -78 0
78 79 80 0
-78 -80 0
-79 -80 0
80 -31 81 0
-80 -81 0
31 -81 0
-78 -79 82 0
78 -82 0
79 -82 0
-81 82 83 0
81 -83 0
-82 -83 0
-77 83 84 0
77 -84 0
-83 -84 0
-75 79 85 0
75 -85 0
-79 -85 0
85 -55 86 0
-85 -86 0
55 -86 0
86 87 88 0
-86 -88 0
-87 -88 0
88 -38 89 0
-88 -89 0
38 -89 0
-86 -87 90 0
86 -90 0
87 -90 0
-89 90 91 0
89 -91 0
-90 -91 0
-84 91 92 0
84 -92 0
-91 -92 0
-85 87 93 0
85 -93 0
-87 -93 0
93 -55 94 0
-93 -94 0
55 -94 0
94 95 96 0
-94 -96 0
-95 -96 0
96 -45 97 0
-96 -97 0
45 -97 0
-94 -95 98 0
94 -98 0
95 -98 0
-97 98 99 0
97 -99 0
-98 -99 0
-92 99 100 0
92 -100 0
-99 -100 0
53 -100 101 0
-53 -101 0
100 -101 0
-29 34 102 0
29 -102 0
-34 -102 0
102 35 103 0
-102 -103 0
-35 -103 0
77 -83 104 0
-77 -104 0
83 -104 0
104 84 105 0
-104 -105 0
-84 -105 0
-103 -105 106 0
103 -106 0
105 -106 0
-36 41 107 0
36 -107 0
-41 -107 0
107 42 108 0
-107 -108 0
-42 -108 0
84 -91 109 0
-84 -109 0
91 -109 0
109 92 110 0
-109 -110 0
-92 -110 0
-108 -110 111 0
108 -111 0
110 -111 0
106 111 112 0
-106 -112 0
-111 -112 0
-22 27 113 0
22 -113 0
-27 -113 0
113 28 114 0
-113 -114 0
-28 -114 0
114 -76 115 0
-114 -115 0
76 -115 0
-15 20 116 0
15 -116 0
-20 -116 0
116 21 117 0
-116 -117 0
-21 -117 0
-117 64 118 0
117 -118 0
-64 -118 0
118 69 119 0
-118 -119 0
-69 -119 0
8 13 120 0
-8 -120 0
-13 -120 0
-65 -68 121 0
65 -121 0
68 -121 0
120 121 122 0
-120 -122 0
-121 -122 0
-65 68 123 0
65 -123 0
-68 -123 0
123 13 124 0
-123 -124 0
-13 -124 0
124 6 125 0
-124 -125 0
-6 -125 0
122 125 126 0
-122 -126 0
-125 -126 0
126 14 127 0
-126 -127 0
-14 -127 0
-119 127 128 0
119 -128 0
-127 -128 0
117 -64 129 0
-117 -129 0
64 -129 0
128 129 130 0
-128 -130 0
-129 -130 0
115 -130 131 0
-115 -131 0
130 -131 0
-114 76 132 0
114 -132 0
-76 -132 0
131 132 133 0
-131 -133 0
-132 -133 0
103 105 134 0
-103 -134 0
-105 -134 0
133 134 135 0
-133 -135 0
-134 -135 0
-135 77 136 0
135 -136 0
-77 -136 0
-112 136 137 0
112 -137 0
-136 -137 0
108 110 138 0
-108 -138 0
-110 -138 0
137 138 139 0
-137 -139 0
-138 -139 0
-43 48 140 0
43 -140 0
-48 -140 0
140 49 141 0
-140 -141 0
-49 -141 0
92 -99 142 0
-92 -142 0
99 -142 0
142 100 143 0
-142 -143 0
-100 -143 0
-141 -143 144 0
141 -144 0
143 -144 0
139 144 145 0
-139 -145 0
-144 -145 0
141 143 146 0
-141 -146 0
-143 -146 0
145 146 147 0
-145 -147 0
-146 -147 0
95 -55 148 0
-95 -148 0
55 -148 0
-148 -2 149 0
148 -149 0
2 -149 0
-149 -93 150 0
149 -150 0
93 -150 0
-147 -150 151 0
147 -151 0
150 -151 0
-101 -151 152 0
101 -152 0
151 -152 0
101 151 153 0
-101 -153 0
-151 -153 0
-53 100 154 0
53 -154 0
-100 -154 0
147 150 155 0
-147 -155 0
-150 -155 0
154 155 156 0
-154 -156 0
-155 -156 0
-153 156 157 0
153 -157 0
-156 -157 0
152 157 158 0
-152 -158 0
-157 -158 0
158 0
